subscription NodesSubscription {
    simulation {
        status
        time
        environment {
            nodes {
                contents {
                    entries {
                        molecule {
                            name
                        }
                        concentration
                    }
                }
            }
        }
    }
}
